500
400 400
1 280 193
2 280 123
3 280 978
4 278 451
5 278 617
6 277 305
7 277 561
8 277 541
9 277 601
10 276 459
11 276 664
12 275 458
13 275 730
14 275 169
15 274 208
16 274 251
17 274 335
18 273 112
19 273 213
20 272 953
21 272 53
22 272 165
23 272 464
24 270 533
25 270 68
26 270 654
27 268 961
28 267 800
29 266 371
30 265 922
31 265 963
32 265 154
33 265 127
34 265 91
35 263 33
36 263 805
37 263 45
38 262 810
39 262 176
40 261 271
41 261 773
42 260 593
43 260 961
44 259 283
45 259 553
46 258 939
47 257 235
48 257 181
49 257 453
50 257 900
51 257 552
52 256 523
53 256 490
54 255 181
55 255 524
56 255 483
57 254 343
58 253 593
59 253 994
60 253 891
61 253 890
62 252 321
63 252 297
64 252 512
65 252 535
66 251 718
67 251 681
68 250 19
69 249 390
70 249 527
71 249 406
72 248 650
73 247 836
74 247 536
75 247 30
76 246 921
77 246 610
78 246 328
79 246 728
80 246 879
81 246 592
82 246 83
83 245 389
84 244 525
85 244 161
86 243 9
87 243 703
88 241 232
89 241 672
90 241 340
91 240 812
92 240 162
93 240 982
94 240 279
95 239 506
96 238 518
97 238 949
98 237 104
99 237 519
100 237 153
101 236 879
102 236 221
103 235 843
104 235 132
105 235 449
106 235 365
107 234 846
108 234 452
109 234 534
110 233 958
111 233 416
112 233 4
113 231 4
114 231 355
115 231 277
116 231 336
117 230 740
118 230 347
119 230 56
120 229 375
121 229 98
122 229 957
123 228 645
124 228 656
125 227 670
126 227 893
127 227 843
128 226 606
129 226 813
130 226 877
131 226 786
132 225 397
133 225 372
134 224 106
135 224 29
136 224 527
137 223 530
138 222 917
139 222 129
140 222 740
141 221 439
142 221 327
143 220 147
144 220 567
145 219 394
146 219 484
147 219 459
148 219 984
149 218 149
150 218 594
151 217 525
152 217 212
153 217 591
154 216 61
155 216 518
156 216 450
157 215 774
158 215 192
159 215 666
160 215 213
161 215 56
162 214 598
163 214 746
164 213 132
165 213 897
166 212 142
167 212 240
168 211 512
169 211 50
170 209 213
171 209 483
172 209 236
173 208 72
174 208 361
175 208 581
176 208 936
177 207 659
178 207 453
179 207 991
180 207 731
181 207 533
182 206 407
183 204 65
184 203 352
185 203 895
186 203 961
187 202 750
188 202 280
189 201 333
190 201 985
191 201 808
192 200 219
193 199 811
194 199 141
195 198 596
196 197 46
197 197 380
198 196 66
199 196 531
200 196 643
201 196 371
202 195 346
203 194 389
204 194 397
205 194 937
206 194 948
207 193 363
208 193 778
209 193 289
210 192 178
211 192 551
212 192 777
213 192 967
214 192 180
215 192 168
216 191 36
217 191 767
218 191 614
219 191 49
220 190 446
221 190 392
222 189 731
223 189 487
224 189 56
225 188 720
226 188 292
227 188 971
228 187 868
229 187 842
230 187 748
231 187 113
232 186 575
233 186 83
234 186 562
235 186 611
236 185 248
237 185 649
238 184 173
239 184 491
240 183 420
241 183 294
242 183 52
243 183 77
244 183 649
245 182 773
246 182 501
247 182 997
248 181 441
249 181 719
250 181 979
251 181 892
252 181 344
253 180 563
254 179 893
255 179 879
256 179 564
257 178 237
258 178 292
259 178 18
260 177 432
261 177 834
262 177 488
263 176 95
264 176 164
265 176 948
266 176 933
267 175 279
268 173 736
269 173 731
270 173 17
271 172 404
272 172 254
273 172 456
274 171 535
275 171 647
276 171 240
277 171 523
278 170 299
279 169 842
280 169 425
281 169 634
282 169 465
283 168 720
284 167 493
285 167 688
286 166 507
287 166 819
288 165 20
289 165 916
290 164 227
291 164 959
292 164 571
293 163 779
294 163 781
295 162 811
296 162 237
297 162 122
298 161 423
299 160 358
300 159 562
301 159 156
302 159 792
303 159 527
304 158 502
305 158 891
306 157 733
307 157 409
308 157 924
309 156 108
310 156 230
311 156 385
312 156 733
313 155 716
314 154 673
315 154 729
316 154 415
317 154 282
318 154 955
319 153 542
320 153 699
321 153 442
322 152 1
323 151 952
324 151 290
325 150 978
326 149 563
327 148 348
328 148 109
329 148 829
330 148 551
331 147 118
332 147 827
333 146 432
334 145 212
335 145 292
336 145 512
337 144 679
338 144 768
339 143 474
340 143 77
341 143 719
342 143 697
343 142 250
344 142 904
345 142 88
346 141 610
347 141 948
348 141 97
349 141 511
350 140 862
351 140 735
352 140 665
353 140 305
354 140 228
355 139 410
356 139 342
357 139 965
358 138 854
359 138 679
360 137 852
361 137 183
362 136 634
363 135 195
364 135 735
365 135 202
366 134 183
367 134 169
368 134 717
369 134 314
370 133 134
371 133 987
372 133 214
373 132 664
374 132 76
375 132 167
376 132 975
377 131 330
378 131 729
379 130 530
380 130 492
381 130 40
382 129 354
383 129 867
384 129 278
385 128 380
386 127 178
387 126 607
388 126 198
389 125 926
390 125 466
391 125 330
392 124 123
393 124 528
394 123 833
395 123 254
396 123 744
397 123 769
398 122 217
399 122 765
400 122 842
401 122 786
402 121 977
403 120 910
404 120 854
405 120 971
406 120 270
407 120 676
408 119 991
409 118 351
410 118 423
411 117 645
412 117 59
413 117 429
414 116 650
415 116 650
416 116 336
417 115 523
418 115 495
419 114 488
420 114 590
421 113 731
422 113 422
423 111 358
424 110 187
425 110 935
426 110 682
427 110 581
428 110 182
429 109 760
430 108 252
431 107 163
432 107 904
433 107 760
434 107 397
435 106 204
436 106 612
437 106 172
438 105 542
439 105 870
440 104 687
441 104 951
442 104 2
443 103 986
444 102 680
445 101 728
446 100 132
447 100 449
448 100 579
449 100 269
450 99 993
451 99 506
452 99 936
453 99 153
454 99 249
455 99 395
456 97 243
457 97 295
458 97 921
459 96 172
460 96 23
461 96 444
462 96 466
463 95 260
464 95 29
465 95 246
466 95 993
467 94 222
468 94 356
469 93 25
470 93 142
471 93 605
472 93 234
473 92 89
474 91 553
475 90 261
476 90 262
477 90 448
478 90 213
479 90 125
480 89 99
481 89 187
482 88 287
483 86 156
484 86 783
485 86 480
486 83 69
487 83 393
488 83 211
489 83 88
490 83 856
491 83 82
492 83 629
493 83 499
494 82 805
495 82 15
496 82 199
497 81 255
498 81 765
499 81 159
500 81 198
